# Solution for model GasLib-40
# Objective value = 2.6361348614527909e+01
loadshed[innode_1] 0
loadshed[innode_2] 0
loadshed[innode_3] 0
loadshed[innode_4] 0
loadshed[innode_5] 0
loadshed[innode_6] 0
loadshed[innode_7] 0
loadshed[innode_8] 0
loadshed[source_1] -2.0497469837212656e-01
loadshed[source_2] 1.6899697369649769e-01
loadshed[source_3] 2.0272642665185225e-01
loadshed[sink_1] 0
loadshed[sink_2] 0
loadshed[sink_3] 0
loadshed[sink_4] 0
loadshed[sink_5] 0
loadshed[sink_6] 0
loadshed[sink_7] 0
loadshed[sink_8] 0
loadshed[sink_9] 0
loadshed[sink_10] 0
loadshed[sink_11] 0
loadshed[sink_12] 1
loadshed[sink_13] 0
loadshed[sink_14] 0
loadshed[sink_15] 0
loadshed[sink_16] 0
loadshed[sink_17] 0
loadshed[sink_18] 0
loadshed[sink_19] 0
loadshed[sink_20] 0
loadshed[sink_21] 6.1190411910489118e-01
loadshed[sink_22] 0
loadshed[sink_23] 0
loadshed[sink_24] 0
loadshed[sink_25] 0
loadshed[sink_26] 0
loadshed[sink_27] 0
loadshed[sink_28] 0
loadshed[sink_29] 0
flow[source_1,sink_3] 1.9049478478084347e+02
flow[innode_1,sink_16] 1.6354166666666970e+01
flow[innode_6,sink_13] -1.1562034008822955e+01
flow[sink_13,sink_14] -2.7916200675489623e+01
flow[sink_14,sink_10] -4.4270367342156291e+01
flow[sink_25,sink_26] 1.4346565090507397e+02
flow[sink_26,sink_9] 8.1770833333333655e+01
flow[sink_9,sink_18] 6.5416666666666671e+01
flow[sink_26,sink_4] 4.5340650905073716e+01
flow[sink_4,sink_20] 2.8986484238406888e+01
flow[sink_18,sink_6] 4.9062500000000313e+01
flow[sink_25,innode_8] -1.5778645144750709e+02
flow[sink_6,sink_7] 0
flow[sink_6,sink_22] 3.2708333333333641e+01
flow[sink_7,sink_24] 2.2701151385472087e+01
flow[sink_22,sink_1] 1.6354166666666970e+01
flow[sink_24,sink_21] 6.3469847188054267e+00
flow[sink_21,sink_12] 0
flow[sink_7,sink_5] -3.9055318052138759e+01
flow[sink_5,sink_17] -5.5409484718805430e+01
flow[sink_17,sink_4] 0
flow[sink_17,sink_8] -7.1763651385472087e+01
flow[sink_3,sink_23] 16.3541666666697
flow[sink_8,sink_20] -8.8117818052138759e+01
flow[sink_25,sink_20] 7.5485500480398230e+01
flow[sink_25,sink_15] -6.5956832595808763e+01
flow[sink_15,sink_29] -9.8665165929159684e+01
flow[sink_29,sink_28] 1.6354166666667879e+01
flow[sink_29,sink_2] 0
flow[sink_2,sink_15] -1.6354166666684250e+01
flow[sink_29,innode_7] -1.3137349926249465e+02
flow[innode_4,sink_19] 4.9143031413623504e+01
flow[sink_19,innode_3] 4.5546045305153541e+01
flow[innode_4,innode_5] 7.6898169261866656e+01
flow[sink_27,innode_5] -7.6898169261866656e+01
flow[sink_27,sink_19] 6.0544002595199984e+01
flow[sink_10,sink_11] 3.2708333333333641e+01
flow[sink_10,innode_2] -4.7786822037003056e+01
flow[sink_10,innode_3] -4.5546045305153541e+01
flow[innode_6,sink_25] 1.1562034008822955e+01
flow[sink_11,innode_1] 1.6354166666666970e+01
flow[sink_19,innode_2] 4.7786822037003056e+01
flow[source_3,innode_4] 1.2604120067549016e+02
flow[source_2,innode_7] 1.3137349926249465e+02
flow[sink_3,innode_8] 1.5778645144750709e+02
pressure[innode_1] 7.6344908361978256e+01
pressure[innode_2] 7.9022340580276392e+01
pressure[innode_3] 7.8921484020478275e+01
pressure[innode_4] 81.01325
pressure[innode_5] 8.0960355384328665e+01
pressure[innode_6] 7.4288985476018439e+01
pressure[innode_7] 81.01325
pressure[innode_8] 80.3764987061231
pressure[source_1] 81.01325
pressure[source_2] 81.01325
pressure[source_3] 81.01325
pressure[sink_1] 5.3512426101921548e+01
pressure[sink_2] 7.4555547634119492e+01
pressure[sink_3] 80.3764987061231
pressure[sink_4] 5.8420056232564384e+01
pressure[sink_5] 4.3317465171116368e+01
pressure[sink_6] 5.5613503712308926e+01
pressure[sink_7] 2.7074663806270152e+01
pressure[sink_8] 5.0152900275563866e+01
pressure[sink_9] 5.9290588515767212e+01
pressure[sink_10] 76.4966096695818
pressure[sink_11] 7.6344908361978256e+01
pressure[sink_12] 1.0132500000000073e+00
pressure[sink_13] 74.3527250373137
pressure[sink_14] 7.4402683456357011e+01
pressure[sink_15] 7.4608940383885937e+01
pressure[sink_16] 7.5323258527160576e+01
pressure[sink_17] 4.7445071271408260e+01
pressure[sink_18] 5.6923618540568555e+01
pressure[sink_19] 7.9022340580276392e+01
pressure[sink_20] 5.6293472969039072e+01
pressure[sink_21] 1.0132500000000073e+00
pressure[sink_22] 5.4576195244276562e+01
pressure[sink_23] 8.0211780694463314e+01
pressure[sink_24] 1.0835369587086774e+00
pressure[sink_25] 7.4288985476018439e+01
pressure[sink_26] 6.4184783935478563e+01
pressure[sink_27] 80.3222426719936
pressure[sink_28] 7.7204241276203163e+01
pressure[sink_29] 7.7499523549820339e+01
interdiction[source_1,sink_3] 0
interdiction[innode_1,sink_16] 0
interdiction[innode_6,sink_13] 0
interdiction[sink_13,sink_14] 0
interdiction[sink_14,sink_10] 0
interdiction[sink_25,sink_26] 0
interdiction[sink_26,sink_9] 0
interdiction[sink_9,sink_18] 0
interdiction[sink_26,sink_4] 0
interdiction[sink_4,sink_20] 0
interdiction[sink_18,sink_6] 0
interdiction[sink_25,innode_8] 0
interdiction[sink_6,sink_7] 1
interdiction[sink_6,sink_22] 0
interdiction[sink_7,sink_24] 0
interdiction[sink_22,sink_1] 0
interdiction[sink_24,sink_21] 0
interdiction[sink_21,sink_12] 0
interdiction[sink_7,sink_5] 0
interdiction[sink_5,sink_17] 0
interdiction[sink_17,sink_4] 1
interdiction[sink_17,sink_8] 0
interdiction[sink_3,sink_23] 0
interdiction[sink_8,sink_20] 0
interdiction[sink_25,sink_20] 0
interdiction[sink_25,sink_15] 0
interdiction[sink_15,sink_29] 0
interdiction[sink_29,sink_28] 0
interdiction[sink_29,sink_2] 1
interdiction[sink_2,sink_15] 0
interdiction[sink_29,innode_7] 0
interdiction[innode_4,sink_19] 0
interdiction[sink_19,innode_3] 0
interdiction[innode_4,innode_5] 0
interdiction[sink_27,innode_5] 0
interdiction[sink_27,sink_19] 0
interdiction[sink_10,sink_11] 0
interdiction[sink_10,innode_2] 0
interdiction[sink_10,innode_3] 0
interdiction[innode_6,sink_25] 0
interdiction[sink_11,innode_1] 0
interdiction[sink_19,innode_2] 0
interdiction[source_3,innode_4] 0
interdiction[source_2,innode_7] 0
interdiction[sink_3,innode_8] 0
WCcheckFlow[source_1,sink_3] 39
WCcheckFlow[innode_1,sink_16] 1
WCcheckFlow[innode_6,sink_13] 13
WCcheckFlow[sink_13,sink_14] 12
WCcheckFlow[sink_14,sink_10] 11
WCcheckFlow[sink_25,sink_26] 15
WCcheckFlow[sink_26,sink_9] 5
WCcheckFlow[sink_9,sink_18] 4
WCcheckFlow[sink_26,sink_4] 9
WCcheckFlow[sink_4,sink_20] 8
WCcheckFlow[sink_18,sink_6] 3
WCcheckFlow[sink_25,innode_8] -36
WCcheckFlow[sink_6,sink_7] 0
WCcheckFlow[sink_6,sink_22] 2
WCcheckFlow[sink_7,sink_24] 3
WCcheckFlow[sink_22,sink_1] 1
WCcheckFlow[sink_24,sink_21] 2
WCcheckFlow[sink_21,sink_12] 1
WCcheckFlow[sink_7,sink_5] -4
WCcheckFlow[sink_5,sink_17] -5
WCcheckFlow[sink_17,sink_4] 0
WCcheckFlow[sink_17,sink_8] -6
WCcheckFlow[sink_3,sink_23] 1
WCcheckFlow[sink_8,sink_20] -7
WCcheckFlow[sink_25,sink_20] 0
WCcheckFlow[sink_25,sink_15] 6
WCcheckFlow[sink_15,sink_29] 4
WCcheckFlow[sink_29,sink_28] 1
WCcheckFlow[sink_29,sink_2] 0
WCcheckFlow[sink_2,sink_15] -1
WCcheckFlow[sink_29,innode_7] 2
WCcheckFlow[innode_4,sink_19] -4
WCcheckFlow[sink_19,innode_3] -5
WCcheckFlow[innode_4,innode_5] 2
WCcheckFlow[sink_27,innode_5] -1
WCcheckFlow[sink_27,sink_19] 0
WCcheckFlow[sink_10,sink_11] 3
WCcheckFlow[sink_10,innode_2] 1
WCcheckFlow[sink_10,innode_3] 6
WCcheckFlow[innode_6,sink_25] -14
WCcheckFlow[sink_11,innode_1] 2
WCcheckFlow[sink_19,innode_2] 0
WCcheckFlow[source_3,innode_4] -1
WCcheckFlow[source_2,innode_7] -1
WCcheckFlow[sink_3,innode_8] 37
